p cnf 18 67
6 10 1 -15 0
6 10 -1 15 0
-6 -10 1 -15 0
-6 -10 -1 15 0
6 -10 1 15 0
6 -10 -1 -15 0
-6 10 1 15 0
-6 10 -1 -15 0
-6 -14 15 0
-10 -14 15 0
6 14 -15 0
10 14 -15 0
6 10 -15 0
-6 -10 15 0
7 11 2 -16 0
7 11 -2 16 0
-7 -11 2 -16 0
-7 -11 -2 16 0
7 -11 2 16 0
7 -11 -2 -16 0
-7 11 2 16 0
-7 11 -2 -16 0
-7 -15 16 0
-11 -15 16 0
7 15 -16 0
11 15 -16 0
7 11 -16 0
-7 -11 16 0
8 12 3 -17 0
8 12 -3 17 0
-8 -12 3 -17 0
-8 -12 -3 17 0
8 -12 3 17 0
8 -12 -3 -17 0
-8 12 3 17 0
-8 12 -3 -17 0
-8 -16 17 0
-12 -16 17 0
8 16 -17 0
12 16 -17 0
8 12 -17 0
-8 -12 17 0
9 13 4 -18 0
9 13 -4 18 0
-9 -13 4 -18 0
-9 -13 -4 18 0
9 -13 4 18 0
9 -13 -4 -18 0
-9 13 4 18 0
-9 13 -4 -18 0
-9 -17 18 0
-13 -17 18 0
9 17 -18 0
13 17 -18 0
9 13 -18 0
-9 -13 18 0
-14 0
-18 5 0
18 -5 0
6 0
-10 0
7 0
-11 0
8 0
12 0
9 0
13 0
